####################################################################### 
# 
# This file contains crystal structure data downloaded from the 
# Cambridge Structural Database (CSD) hosted by the Cambridge 
# Crystallographic Data Centre (CCDC).
# 
# Full information about CCDC data access policies and citation 
# guidelines are available at http://www.ccdc.cam.ac.uk/access/V1 
# 
# Audit and citation data items may have been added by the CCDC. 
# Please retain this information to preserve the provenance of 
# this file and to allow appropriate attribution of the data. 
# 
#######################################################################

data_IMAZOL06
#This CIF has been generated from an entry in the Cambridge Structural Database
_database_code_depnum_ccdc_archive 'CCDC 1180146'
_database_code_CSD               IMAZOL06
loop_
_citation_id
_citation_doi
_citation_year
1 10.1107/S0567740879004441 1979
_audit_creation_method           'Created from the CSD'
_audit_update_record             
;
2025-07-12 downloaded from the CCDC.
;
_database_code_NBS               535426
_chemical_formula_moiety         'C3 H4 N2'
_chemical_name_systematic        Imidazole
_chemical_absolute_configuration unk
_diffrn_ambient_temperature      103
_exptl_crystal_density_diffrn    1.302
#These two values have been output from a single CSD field.
_refine_ls_R_factor_gt           0.026
_refine_ls_wR_factor_gt          0.026
_diffrn_radiation_probe          neutron
_diffrn_source                   'neutron radiation'
_symmetry_cell_setting           monoclinic
_symmetry_space_group_name_H-M   'P 21/c'
_symmetry_Int_Tables_number      14
_space_group_name_Hall           '-P 2ybc'
loop_
_symmetry_equiv_pos_site_id
_symmetry_equiv_pos_as_xyz
1 x,y,z
2 -x,1/2+y,1/2-z
3 -x,-y,-z
4 x,1/2-y,1/2+z
_cell_length_a                   7.569(1)
_cell_length_b                   5.366(1)
_cell_length_c                   9.785(2)
_cell_angle_alpha                90
_cell_angle_beta                 119.08(1)
_cell_angle_gamma                90
_cell_volume                     347.322
_cell_formula_units_Z            4
loop_
_atom_site_label
_atom_site_type_symbol
_atom_site_fract_x
_atom_site_fract_y
_atom_site_fract_z
N1 N 0.21891 0.33257 0.08710
C1 C 0.15699 0.21884 0.17916
N2 N 0.20840 0.34584 0.30898
C2 C 0.30927 0.55227 0.29901
C3 C 0.31694 0.54606 0.16221
H1 H 0.20340 0.26710 -0.01880
H2 H 0.07670 0.04430 0.15030
H3 H 0.37060 0.69130 0.38980
H4 H 0.38430 0.67230 0.11500

#END
